4486 1655
4301 319
1307 143
101 356
2931 4295
9037 386
8422 4671
7064 4454
2048 3353
3375 5699
5309 6566
4315 6370
2338 6029
2182 2337
6775 1846
9238 9156
4091 8105
5463 4900
8245 6392
3490 3071
4687 4963
6263 7431
1627 6462
8019 8429
5891 240
4172 5756
9156 1038
2492 6004
649 7253
1858 232
8913 1045
2492 6007
5239 9744
1100 2582
2643 4666
1549 2076
6766 5339
2136 9838
4078 2768
7127 3084
5617 3737
1467 3299
2396 5267
9369 5193
597 5933
6076 9916
415 6081
8204 7561
1751 6990
6797 3022
